c E1(1,3) E1(3,1) E2(3,1) E2(1,3) E1(1,0) E2(0,1) E2(1,0) E1(0,1) E2(1,2) E2(2,1) E1(2,1) E1(1,2) E2(3,0) E1(0,3) E1(3,0) E2(0,3) E1(3,2) E2(2,3) E1(2,3) E2(3,2) E1(0,2) E2(2,0) E1(2,0) E2(0,2)
c 1 2 3 4 5 6 7 8 9 10 11 12 13 14 15 16 17 18 19 20 21 22 23 24
p cnf 24 320
8 -8 0
8 -5 0
21 -21 0
21 -23 0
14 -14 0
14 -15 0
5 -8 0
5 -5 0
12 -12 0
12 -11 0
1 -1 0
1 -2 0
23 -21 0
23 -23 0
11 -12 0
11 -11 0
19 -19 0
19 -17 0
15 -14 0
15 -15 0
2 -1 0
2 -2 0
17 -19 0
17 -17 0
6 -6 0
6 -7 0
24 -24 0
24 -22 0
16 -16 0
16 -13 0
7 -6 0
7 -7 0
9 -9 0
9 -10 0
4 -4 0
4 -3 0
22 -24 0
22 -22 0
10 -9 0
10 -10 0
18 -18 0
18 -20 0
13 -16 0
13 -13 0
3 -4 0
3 -3 0
20 -18 0
20 -20 0
8 21 14 0
5 12 1 0
23 11 19 0
15 2 17 0
6 24 16 0
7 9 4 0
22 10 18 0
13 3 20 0
-8 -6 0
-8 -7 0
-21 -24 0
-21 -22 0
-14 -16 0
-14 -13 0
-5 -6 0
-5 -7 0
-12 -9 0
-12 -10 0
-1 -4 0
-1 -3 0
-23 -24 0
-23 -22 0
-11 -9 0
-11 -10 0
-19 -18 0
-19 -20 0
-15 -16 0
-15 -13 0
-2 -4 0
-2 -3 0
-17 -18 0
-17 -20 0
8 6 -8 0
8 6 -5 0
8 6 -6 0
8 6 -7 0
8 7 -8 0
8 7 -5 0
8 7 -6 0
8 7 -7 0
21 24 -21 0
21 24 -23 0
21 24 -24 0
21 24 -22 0
21 22 -21 0
21 22 -23 0
21 22 -24 0
21 22 -22 0
14 16 -14 0
14 16 -15 0
14 16 -16 0
14 16 -13 0
14 13 -14 0
14 13 -15 0
14 13 -16 0
14 13 -13 0
5 6 -8 0
5 6 -5 0
5 6 -6 0
5 6 -7 0
5 7 -8 0
5 7 -5 0
5 7 -6 0
5 7 -7 0
12 9 -12 0
12 9 -11 0
12 9 -9 0
12 9 -10 0
12 10 -12 0
12 10 -11 0
12 10 -9 0
12 10 -10 0
1 4 -1 0
1 4 -2 0
1 4 -4 0
1 4 -3 0
1 3 -1 0
1 3 -2 0
1 3 -4 0
1 3 -3 0
23 24 -21 0
23 24 -23 0
23 24 -24 0
23 24 -22 0
23 22 -21 0
23 22 -23 0
23 22 -24 0
23 22 -22 0
11 9 -12 0
11 9 -11 0
11 9 -9 0
11 9 -10 0
11 10 -12 0
11 10 -11 0
11 10 -9 0
11 10 -10 0
19 18 -19 0
19 18 -17 0
19 18 -18 0
19 18 -20 0
19 20 -19 0
19 20 -17 0
19 20 -18 0
19 20 -20 0
15 16 -14 0
15 16 -15 0
15 16 -16 0
15 16 -13 0
15 13 -14 0
15 13 -15 0
15 13 -16 0
15 13 -13 0
2 4 -1 0
2 4 -2 0
2 4 -4 0
2 4 -3 0
2 3 -1 0
2 3 -2 0
2 3 -4 0
2 3 -3 0
17 18 -19 0
17 18 -17 0
17 18 -18 0
17 18 -20 0
17 20 -19 0
17 20 -17 0
17 20 -18 0
17 20 -20 0
8 -8 -5 0
8 -8 -6 0
8 -8 -7 0
8 -5 -6 0
8 -5 -7 0
21 -21 -23 0
21 -21 -24 0
21 -21 -22 0
21 -23 -24 0
21 -23 -22 0
14 -14 -15 0
14 -14 -16 0
14 -14 -13 0
14 -15 -16 0
14 -15 -13 0
5 -8 -5 0
5 -8 -6 0
5 -8 -7 0
5 -5 -6 0
5 -5 -7 0
12 -12 -11 0
12 -12 -9 0
12 -12 -10 0
12 -11 -9 0
12 -11 -10 0
1 -1 -2 0
1 -1 -4 0
1 -1 -3 0
1 -2 -4 0
1 -2 -3 0
23 -21 -23 0
23 -21 -24 0
23 -21 -22 0
23 -23 -24 0
23 -23 -22 0
11 -12 -11 0
11 -12 -9 0
11 -12 -10 0
11 -11 -9 0
11 -11 -10 0
19 -19 -17 0
19 -19 -18 0
19 -19 -20 0
19 -17 -18 0
19 -17 -20 0
15 -14 -15 0
15 -14 -16 0
15 -14 -13 0
15 -15 -16 0
15 -15 -13 0
2 -1 -2 0
2 -1 -4 0
2 -1 -3 0
2 -2 -4 0
2 -2 -3 0
17 -19 -17 0
17 -19 -18 0
17 -19 -20 0
17 -17 -18 0
17 -17 -20 0
6 -8 -6 0
6 -8 -7 0
6 -5 -6 0
6 -5 -7 0
6 -6 -7 0
24 -21 -24 0
24 -21 -22 0
24 -23 -24 0
24 -23 -22 0
24 -24 -22 0
16 -14 -16 0
16 -14 -13 0
16 -15 -16 0
16 -15 -13 0
16 -16 -13 0
7 -8 -6 0
7 -8 -7 0
7 -5 -6 0
7 -5 -7 0
7 -6 -7 0
9 -12 -9 0
9 -12 -10 0
9 -11 -9 0
9 -11 -10 0
9 -9 -10 0
4 -1 -4 0
4 -1 -3 0
4 -2 -4 0
4 -2 -3 0
4 -4 -3 0
22 -21 -24 0
22 -21 -22 0
22 -23 -24 0
22 -23 -22 0
22 -24 -22 0
10 -12 -9 0
10 -12 -10 0
10 -11 -9 0
10 -11 -10 0
10 -9 -10 0
18 -19 -18 0
18 -19 -20 0
18 -17 -18 0
18 -17 -20 0
18 -18 -20 0
13 -14 -16 0
13 -14 -13 0
13 -15 -16 0
13 -15 -13 0
13 -16 -13 0
3 -1 -4 0
3 -1 -3 0
3 -2 -4 0
3 -2 -3 0
3 -4 -3 0
20 -19 -18 0
20 -19 -20 0
20 -17 -18 0
20 -17 -20 0
20 -18 -20 0
-8 -5 -6 0
-8 -5 -7 0
-8 -6 -7 0
-21 -23 -24 0
-21 -23 -22 0
-21 -24 -22 0
-14 -15 -16 0
-14 -15 -13 0
-14 -16 -13 0
-5 -6 -7 0
-12 -11 -9 0
-12 -11 -10 0
-12 -9 -10 0
-1 -2 -4 0
-1 -2 -3 0
-1 -4 -3 0
-23 -24 -22 0
-11 -9 -10 0
-19 -17 -18 0
-19 -17 -20 0
-19 -18 -20 0
-15 -16 -13 0
-2 -4 -3 0
-17 -18 -20 0
